37
 energy: -59.133557687712 gnorm: 0.000138942038 xtb: 6.7.1 (edcfbbe)
C           -5.13244035165247        0.64937097448241       -0.31448315183840
O           -4.37601336324154        0.08711905250524        0.73618502917345
C           -3.01344362294983        0.03411396615316        0.48023772707933
C           -2.46658844413056       -1.10515437816317       -0.11547171113597
C           -3.34058427440283       -2.25792243162599       -0.50867581420770
C           -1.09943737383664       -1.15468829227694       -0.33689005107308
C           -0.27013726845376       -0.09488586709722        0.01378231727405
C            1.17677584972556       -0.16019697184640       -0.23871223296875
C            1.86047588908624        0.95499654623311       -0.72514008135517
C            3.22024672392157        0.89372524668090       -0.96858150655639
C            3.89828876328446       -0.28360092849770       -0.72281326938598
S            5.66376028809345       -0.35124581305177       -0.99606562635158
N            6.31458141191645        0.11230514188569        0.47401106841757
O            6.03502561806655        0.65728486192245       -1.93929660963821
O            6.05819659337936       -1.70975897730685       -1.20386444127743
C            3.24526397739268       -1.40111478905794       -0.24225748671718
C            1.88484884713395       -1.33943068669085       -0.00268941656683
C           -0.83515439832930        1.02427312699305        0.61590160087578
C           -2.19682725786804        1.10171395849620        0.86149308582835
C           -2.78028742985873        2.31080672799648        1.52894323994067
H           -5.02623192600619        0.07147773527449       -1.23876498170947
H           -4.83725890822272        1.68558620241477       -0.51143065628798
H           -6.17096473175815        0.62420680473917        0.01131437237332
H           -3.57229143309917       -2.21204515077347       -1.57345092989133
H           -4.27210858908812       -2.23274679685323        0.05089380162223
H           -2.83466455342931       -3.20138642596846       -0.31715689681858
H           -0.67797587023860       -2.02710939867123       -0.81453295324375
H            1.31566039549044        1.86348542516438       -0.93282239820992
H            3.76653385341848        1.73511568007042       -1.36524266045244
H            6.12658459300465        1.06864436133690        0.72050953381041
H            6.13746202463098       -0.53522011287378        1.22242706112304
H            3.81174952779472       -2.30453755695705       -0.07898676700249
H            1.36556913155630       -2.20283569108997        0.38461355482872
H           -0.20029611613936        1.84195396478196        0.92524872406242
H           -3.73687018467599        2.06527945086362        1.98301740034885
H           -2.93540379537194        3.10882764732486        0.80174836426702
H           -2.10604259514647        2.68359339347938        2.29660676166190
