37

C     -5.062268    0.730215   -0.402403
O     -4.415200    0.089691    0.698564
C     -3.061708    0.019741    0.479204
C     -2.521623   -1.113966   -0.145112
C     -3.387801   -2.249749   -0.609456
C     -1.137685   -1.162085   -0.376736
C     -0.284803   -0.126407    0.039448
C      1.165055   -0.192753   -0.209639
C      1.832237    0.852939   -0.873153
C      3.207721    0.794496   -1.115236
C      3.932336   -0.316917   -0.684001
S      5.676331   -0.410859   -0.986582
N      6.301209    0.120627    0.484581
O      6.032810    0.606761   -1.948429
O      6.037647   -1.798227   -1.150841
C      3.294395   -1.374575   -0.033832
C      1.918935   -1.306225    0.202987
C     -0.853284    0.969949    0.708852
C     -2.233382    1.046568    0.955261
C     -2.790211    2.236720    1.682810
H     -4.928575    0.164657   -1.330349
H     -4.707485    1.757767   -0.533681
H     -6.133357    0.768891   -0.182575
H     -3.798114   -2.030128   -1.599627
H     -4.210532   -2.430688    0.089714
H     -2.813924   -3.180775   -0.670811
H     -0.717940   -2.021851   -0.897469
H      1.272823    1.718850   -1.224539
H      3.695220    1.610949   -1.643749
H      6.805676    0.995399    0.330754
H      5.594542    0.211043    1.213456
H      3.854576   -2.251434    0.285663
H      1.432725   -2.132234    0.720352
H     -0.207316    1.772581    1.061532
H     -3.613759    1.945675    2.342792
H     -3.148281    2.982333    0.966657
H     -2.026989    2.703021    2.315197
