46
 energy: -67.178074763261 gnorm: 0.000129825800 xtb: 6.7.1 (edcfbbe)
C            0.13766449891460       -0.38814953865526        2.33142236349762
C           -0.37775985256183        0.53974466986784        1.23110246127010
C            0.55258095679603        1.76702197516367        1.09856182393752
C            1.18883682233165        1.90213127848026       -0.28236899689096
C            1.76283686403857        0.56058063474716       -0.75115771519744
N            2.93283566520187        0.21229456110242        0.04518974087426
C            4.11400635760328        0.86026459690883        0.05618443927919
C            4.93530085169352        0.18502230077967        0.92969919848636
C            4.14913895379271       -0.87390971378482        1.39653914319689
N            2.94852644675405       -0.84239852718352        0.84964433651234
N            0.78085481450960       -0.49685407560156       -0.72448255419781
C           -0.51324396966758       -0.16319311223056       -0.14246788244926
C           -1.32020980043186        0.65662998844685       -1.14938283456715
C           -1.01236967450102        0.53895965710427       -2.50242996748821
C           -1.73866677252507        1.22010495178115       -3.46125155683840
C           -2.80282133379039        2.02285731895588       -3.08723730062843
C           -3.13767677778580        2.12131280213188       -1.74905310968376
C           -2.40826977086544        1.43994575817291       -0.78872839061310
C           -1.28911393557611       -1.49881296597965       -0.05415417402065
O           -2.44730199108866       -1.36799824776383        0.72552016053279
C           -2.80009755499464       -2.67527416022427        1.12286226499272
C           -1.48403757573808       -3.47884791033045        0.99713805376649
O           -0.54495421544747       -2.53865419388439        0.52534696404538
H            1.08132573427475       -0.84856558087227        2.04809036415866
H           -0.58375950486322       -1.16942685030543        2.54497727020697
H            0.28639296669284        0.18806918633054        3.24393509931603
H           -1.37288631565464        0.86656733331892        1.53611697268607
H            1.35201624507974        1.68089536374446        1.83736298339972
H            0.00214896118888        2.68345219014520        1.31764115504447
H            0.45250929303624        2.23646572000895       -1.01235748932842
H            1.98942968667567        2.64348512742478       -0.24741069651607
H            2.12741912105374        0.67436082817633       -1.79045693433696
H            4.29022079187565        1.72803020561438       -0.54710924032881
H            5.94757960733221        0.41706481775149        1.18997715458876
H            4.40300716462740       -1.64591827463138        2.09542321424378
H            1.16703263750682       -1.30750866221917       -0.24904912928163
H           -0.18834565331706       -0.09429366347967       -2.79169800883449
H           -1.47616221971723        1.11932558847829       -4.50443600618376
H           -3.37208916577154        2.55783341603843       -3.83307134380691
H           -3.97734114327830        2.72986473478860       -1.44602178365611
H           -2.71110539899883        1.51873878490806        0.24242825214368
H           -1.57006715259298       -1.80089947593415       -1.08784522685024
H           -3.18190638663248       -2.62719643932135        2.14401123980801
H           -3.57498372169115       -3.08085885809050        0.46028267258901
H           -1.59293982944547       -4.30369592970595        0.28186067856049
H           -1.12355372405189       -3.86856761017597        1.95085133457544
