27

C      0.648554   -3.056177   -1.577432
O     -0.446527   -2.307375   -1.065716
C     -0.175464   -1.081812   -0.510350
C      1.106140   -0.530317   -0.418817
C      1.315146    0.728609    0.159261
C      2.689356    1.344408    0.249722
O      3.696339    0.520626   -0.333695
C      0.208368    1.422254    0.666632
O      0.454644    2.664593    1.193779
C     -1.089308    0.878109    0.636701
C     -2.249595    1.619171    1.251224
C     -1.286567   -0.369865   -0.007207
C     -2.668863   -0.970927   -0.114232
H      1.138448   -2.527401   -2.401631
H      0.252406   -3.995238   -1.975923
H      1.360880   -3.307355   -0.784706
H      1.970923   -1.063231   -0.801387
H      2.953992    1.499938    1.301002
H      2.700121    2.303739   -0.278398
H      4.534880    0.996448   -0.213568
H     -0.373127    3.170358    1.204640
H     -1.937104    2.183049    2.136393
H     -2.682611    2.308672    0.520344
H     -3.029152    0.938471    1.606120
H     -3.408957   -0.203626   -0.364447
H     -2.740211   -1.718065   -0.910659
H     -2.942712   -1.447057    0.832348
