27
 energy: -40.746606656054 gnorm: 0.000185498267 xtb: 6.7.1 (edcfbbe)
C            0.64301253948787       -3.03892981170302       -1.57997278495971
O           -0.43327981795298       -2.30491257239279       -1.05470621362184
C           -0.17279410467884       -1.07732318893236       -0.49908210209813
C            1.09628894482194       -0.52192698858328       -0.43833358707037
C            1.29265353447788        0.72098546308096        0.13525134438608
C            2.65674559396012        1.35017911683253        0.21401012448780
O            3.63360929955015        0.51170145059865       -0.36246298998151
C            0.20643980918543        1.41584146335648        0.65605475571989
O            0.45428173558551        2.64436806475622        1.21394112741308
C           -1.07778205437071        0.86886953645291        0.60351771000044
C           -2.22010072676078        1.66234509449685        1.18562228570956
C           -1.27277061803613       -0.38201625849688        0.02230756600347
C           -2.63726069204060       -1.00687056089821       -0.06084903872953
H            1.12956716918661       -2.50870680703293       -2.40502716472738
H            0.21007856001169       -3.96624842932908       -1.95390492541750
H            1.38682617756849       -3.27145833681318       -0.81106377190417
H            1.96097352072920       -1.02873156768337       -0.82978132997701
H            2.88842451764721        1.54998387635027        1.27159170920683
H            2.62275958530943        2.32228608389592       -0.30163650710155
H            4.48737429057726        0.94893446613585       -0.29175962787258
H           -0.37707278300049        3.01605893281490        1.53088832767177
H           -2.04872065033703        1.86474254345466        2.24501169435188
H           -2.33579488563602        2.61394581590022        0.66245271087359
H           -3.15603580290607        1.12335417674934        1.10103768649147
H           -3.31900503620389       -0.37554294267959       -0.62924418414242
H           -2.56392991485761       -1.96860071482444       -0.55716803871082
H           -3.05448919131770       -1.16232890550642        0.93330322399865
