42
 energy: -58.991968564071 gnorm: 0.000094894612 xtb: 6.7.1 (edcfbbe)
C            6.57081633491940       -0.14920563659781       -0.18607862545028
N            5.14216380387064       -0.06095676555858       -0.02059498195300
C            4.27593152903963       -0.38791879061227       -1.01406526982166
O            4.65184146654912       -0.79212525568656       -2.09817774172105
C            2.83676223549000       -0.20736651697595       -0.68011287956378
C            1.96138506082667        0.09522782962079       -1.70914690573700
C            0.61039397189026        0.27555833766625       -1.46210139677667
C            0.10228261430391        0.13154788224123       -0.18027311776165
O           -1.18710979792695        0.26634276887899        0.19600937464835
C           -2.20677859474130        0.49788505310479       -0.76709861682240
C           -2.27940634663560        1.98934185406058       -1.09747426632588
C           -3.51064350252461       -0.09726779733305       -0.17527121798595
C           -3.83986213366580        0.55189049822808        1.16996034302218
C           -4.67292328888716        0.09530805437587       -1.15127282200470
C           -3.28128270636754       -1.59764125608232        0.03951245022107
C            0.98941391317111       -0.20906083526060        0.87147925026671
O            0.39864492653910       -0.36316940860247        2.09273462339009
C            1.20267407937966       -0.72929160832684        3.18406173696118
C            2.33692073949209       -0.36532661963012        0.61578118446435
H            7.03441874819565        0.83928756826327       -0.14739890736447
H            7.00990816118311       -0.78095530693659        0.58886356467421
H            6.75403083498212       -0.59376982236894       -1.16317314134745
H            4.79323157817949        0.36965548343469        0.81929803077268
H            2.35119462441203        0.19509579388741       -2.70997002887175
H           -0.03858319588200        0.52447218718909       -2.28624234354847
H           -1.97894898322018       -0.06332274156114       -1.68512686680926
H           -3.00126157479491        2.17327806259768       -1.88697787811615
H           -2.55442785402283        2.55796387970359       -0.21442822803527
H           -1.30444149971494        2.33796697004113       -1.43135301639805
H           -4.66291869490139        0.02291275477916        1.64457610336371
H           -4.13441485483060        1.59061405804802        1.04478222368951
H           -2.97172738883365        0.50681736357010        1.82137263870160
H           -4.94275908910324        1.14376079785379       -1.24374980980828
H           -4.41788857380324       -0.28747342091756       -2.13741640603780
H           -5.54498997451244       -0.44549084694936       -0.79127902813863
H           -2.44901796091316       -1.75338571587289        0.72054961633935
H           -4.16944895593047       -2.05827090579074        0.46521863522992
H           -3.05639558599035       -2.09223947818335       -0.90366062059138
H            1.96251228510540        0.02994430233613        3.40054260196330
H            1.69119520587998       -1.69615042054735        3.02131643715268
H            0.52587986820734       -0.80872394553084        4.03347037486829
H            3.00363057558619       -0.65575340455628        1.41291492726981
