42

C      6.505868   -0.632309   -0.238102
N      5.102365   -0.424523    0.017549
C      4.188935   -0.493365   -1.015518
O      4.485096   -0.795891   -2.165342
C      2.786093   -0.130314   -0.676440
C      1.991954    0.446264   -1.671742
C      0.673262    0.807998   -1.393752
C      0.132822    0.569988   -0.127069
O     -1.143824    0.931521    0.222970
C     -2.177926    0.762969   -0.762930
C     -2.600529    2.163642   -1.214888
C     -3.337796   -0.083247   -0.136707
C     -3.902494    0.563456    1.142651
C     -4.484625   -0.271281   -1.147650
C     -2.799918   -1.481938    0.237761
C      0.928242   -0.010437    0.881123
O      0.317401   -0.191928    2.096902
C      1.047448   -0.862790    3.113355
C      2.251350   -0.367483    0.597522
H      6.911343    0.262483   -0.717832
H      7.011053   -0.803102    0.715231
H      6.647741   -1.494253   -0.895662
H      4.850084    0.093118    0.848554
H      2.403771    0.627048   -2.663036
H      0.094195    1.289003   -2.175087
H     -1.813630    0.210588   -1.639340
H     -3.368388    2.129745   -1.991869
H     -2.967670    2.763498   -0.376343
H     -1.742775    2.711168   -1.619993
H     -4.671904   -0.072703    1.595816
H     -4.368436    1.531941    0.934963
H     -3.122054    0.718356    1.895332
H     -4.989933    0.674014   -1.370168
H     -4.114943   -0.688924   -2.090672
H     -5.246243   -0.956640   -0.757787
H     -2.036182   -1.426750    1.019973
H     -3.602229   -2.126879    0.614580
H     -2.356692   -1.979706   -0.631988
H      1.931223   -0.287732    3.408235
H      1.319966   -1.876444    2.801554
H      0.398747   -0.948115    3.990450
H      2.869234   -0.850041    1.345396
