46

C     -0.168187   -0.436654    2.494862
C     -0.507912    0.494406    1.316669
C      0.450079    1.710521    1.372729
C      1.193782    1.982573    0.074943
C      1.721668    0.704919   -0.579447
N      3.031966    0.313976   -0.022151
C      4.261189    0.633227   -0.535319
C      5.188050    0.055233    0.299075
C      4.425237   -0.594253    1.285663
N      3.112382   -0.441785    1.099681
N      0.841201   -0.476624   -0.536980
C     -0.561628   -0.198912   -0.106010
C     -1.305695    0.637738   -1.194562
C     -0.974107    0.484510   -2.559008
C     -1.633336    1.204877   -3.558002
C     -2.655064    2.084544   -3.220520
C     -3.023958    2.232127   -1.887368
C     -2.363605    1.510860   -0.886588
C     -1.350854   -1.581429   -0.070703
O     -2.602459   -1.505040    0.631922
C     -2.881294   -2.871564    0.927743
C     -1.523553   -3.452778    1.236712
O     -0.586055   -2.663320    0.501117
H      0.740118   -1.017734    2.322686
H     -0.990041   -1.124703    2.700842
H     -0.026548    0.138842    3.417297
H     -1.504665    0.870792    1.570757
H      1.191260    1.585295    2.172213
H     -0.122204    2.606723    1.644505
H      0.520401    2.499475   -0.618355
H      2.010145    2.690077    0.268213
H      1.927535    0.923771   -1.634892
H      4.366049    1.228074   -1.431483
H      6.263772    0.092939    0.206861
H      4.771112   -1.173166    2.132264
H      1.240436   -1.132579    0.149550
H     -0.192302   -0.212397   -2.858018
H     -1.351376    1.070192   -4.598866
H     -3.173000    2.643249   -3.995106
H     -3.837098    2.902953   -1.621228
H     -2.716334    1.639354    0.132109
H     -1.573104   -1.898764   -1.099916
H     -3.584424   -2.954765    1.760380
H     -3.325102   -3.336977    0.040470
H     -1.440838   -4.506267    0.955480
H     -1.281638   -3.361536    2.299778
